%rwf=ADNOQZQZUQQVRY-UHFFFAOYSA-N_cat-rad_solv.rwf
%NoSave
%chk=ADNOQZQZUQQVRY-UHFFFAOYSA-N_cat-rad_solv.chk
%mem=8GB
%nprocshared=16
#p opt 6-31+g(d,p) scrf=(solvent=acetonitrile) m06

ADNOQZQZUQQVRY-UHFFFAOYSA-N_cat-rad_solv

1 2
 6           0       -3.406358    0.353452    0.000096
 6           0       -1.975249    0.649810   -0.000099
 6           0       -1.287294    1.834845   -0.000236
 6           0        0.128378    1.722242   -0.000207
 6           0        0.616014    0.426243   -0.000054
 6           0        1.940839   -0.058422    0.000016
 6           0        2.308636   -1.497422    0.000162
 7           0        2.962122    0.929725    0.595393
 7           0        2.962156    0.929622   -0.595474
16           0       -0.793286   -0.709664    0.000033
 8           0       -0.849566   -1.424826    1.266044
 8           0       -0.849521   -1.425004   -1.265880
 1           0       -3.665836   -0.254721   -0.878107
 1           0       -3.665868   -0.252537    0.879826
 1           0       -3.997993    1.270311   -0.000978
 1           0       -1.789954    2.796715   -0.000372
 1           0        0.772457    2.597337   -0.000308
 1           0        1.909692   -1.995677    0.890738
 1           0        3.393620   -1.612160    0.000001
 1           0        1.909417   -1.995928   -0.890147

